40
    41    56    43    30    12    77    87    53    22    19    74    54    47    21    82    84    95    73    70    99    99    21    72    58    21    60     4    20    51    41    55    52     9    69    98    20    40   100    79    96
     1     1     5     9     5     6     2     5     4     9     9     4     6     4     7     2     8     7     8     7     7     2     9     7     6    10     8     1     9     6    10     9     7     3     1     1     9     6     1     1
  1494  1558  1707  1373  1538  1603  1783  2142  1765  1811  1878  1852  1675  1785  1921  1456  1879  1505  1979  1990  1387  1958  1519  1470  1475  1815  1739  1907  2090  1578  2190  1797  2202  2017  1352  1372  1485  2162  2054  2134
